p cnf 259 542
1 2 3 4 5 6 7 8 9 10 0
-1 -2 0
-1 -3 0
-1 -4 0
-1 -5 0
-1 -6 0
-1 -7 0
-1 -8 0
-1 -9 0
-1 -10 0
-2 -3 0
-2 -4 0
-2 -5 0
-2 -6 0
-2 -7 0
-2 -8 0
-2 -9 0
-2 -10 0
-3 -4 0
-3 -5 0
-3 -6 0
-3 -7 0
-3 -8 0
-3 -9 0
-3 -10 0
-4 -5 0
-4 -6 0
-4 -7 0
-4 -8 0
-4 -9 0
-4 -10 0
-5 -6 0
-5 -7 0
-5 -8 0
-5 -9 0
-5 -10 0
-6 -7 0
-6 -8 0
-6 -9 0
-6 -10 0
-7 -8 0
-7 -9 0
-7 -10 0
-8 -9 0
-8 -10 0
-9 -10 0
-1 -180 102 0
-22 -181 113 0
-23 -182 124 0
-24 -183 135 0
-25 -184 146 0
-26 -185 157 0
-27 -186 168 0
-28 -187 179 0
-2 -188 102 0
-30 -189 113 0
-31 -190 124 0
-32 -191 135 0
-33 -192 146 0
-34 -193 157 0
-35 -194 168 0
-36 -195 179 0
-3 -196 102 0
-38 -197 113 0
-39 -198 124 0
-40 -199 135 0
-41 -200 146 0
-42 -201 157 0
-43 -202 168 0
-44 -203 179 0
-4 -204 102 0
-46 -205 113 0
-47 -206 124 0
-48 -207 135 0
-49 -208 146 0
-50 -209 157 0
-51 -210 168 0
-52 -211 179 0
-5 -212 102 0
-54 -213 113 0
-55 -214 124 0
-56 -215 135 0
-57 -216 146 0
-58 -217 157 0
-59 -218 168 0
-60 -219 179 0
-6 -220 102 0
-62 -221 113 0
-63 -222 124 0
-64 -223 135 0
-65 -224 146 0
-66 -225 157 0
-67 -226 168 0
-68 -227 179 0
-7 -228 102 0
-70 -229 113 0
-71 -230 124 0
-72 -231 135 0
-73 -232 146 0
-74 -233 157 0
-75 -234 168 0
-76 -235 179 0
-8 -236 102 0
-78 -237 113 0
-79 -238 124 0
-80 -239 135 0
-81 -240 146 0
-82 -241 157 0
-83 -242 168 0
-84 -243 179 0
-9 -244 102 0
-86 -245 113 0
-87 -246 124 0
-88 -247 135 0
-89 -248 146 0
-90 -249 157 0
-91 -250 168 0
-92 -251 179 0
-10 -252 102 0
-94 -253 113 0
-95 -254 124 0
-96 -255 135 0
-97 -256 146 0
-98 -257 157 0
-99 -258 168 0
-100 -259 179 0
-1 22 0
1 -22 0
-22 23 0
22 -23 0
-23 24 0
23 -24 0
-24 25 0
24 -25 0
-25 26 0
25 -26 0
-26 27 0
26 -27 0
-27 28 0
27 -28 0
-28 29 0
28 -29 0
-2 30 0
2 -30 0
-30 31 0
30 -31 0
-31 32 0
31 -32 0
-32 33 0
32 -33 0
-33 34 0
33 -34 0
-34 35 0
34 -35 0
-35 36 0
35 -36 0
-36 37 0
36 -37 0
-3 38 0
3 -38 0
-38 39 0
38 -39 0
-39 40 0
39 -40 0
-40 41 0
40 -41 0
-41 42 0
41 -42 0
-42 43 0
42 -43 0
-43 44 0
43 -44 0
-44 45 0
44 -45 0
-4 46 0
4 -46 0
-46 47 0
46 -47 0
-47 48 0
47 -48 0
-48 49 0
48 -49 0
-49 50 0
49 -50 0
-50 51 0
50 -51 0
-51 52 0
51 -52 0
-52 53 0
52 -53 0
-5 54 0
5 -54 0
-54 55 0
54 -55 0
-55 56 0
55 -56 0
-56 57 0
56 -57 0
-57 58 0
57 -58 0
-58 59 0
58 -59 0
-59 60 0
59 -60 0
-60 61 0
60 -61 0
-6 62 0
6 -62 0
-62 63 0
62 -63 0
-63 64 0
63 -64 0
-64 65 0
64 -65 0
-65 66 0
65 -66 0
-66 67 0
66 -67 0
-67 68 0
67 -68 0
-68 69 0
68 -69 0
-7 70 0
7 -70 0
-70 71 0
70 -71 0
-71 72 0
71 -72 0
-72 73 0
72 -73 0
-73 74 0
73 -74 0
-74 75 0
74 -75 0
-75 76 0
75 -76 0
-76 77 0
76 -77 0
-8 78 0
8 -78 0
-78 79 0
78 -79 0
-79 80 0
79 -80 0
-80 81 0
80 -81 0
-81 82 0
81 -82 0
-82 83 0
82 -83 0
-83 84 0
83 -84 0
-84 85 0
84 -85 0
-9 86 0
9 -86 0
-86 87 0
86 -87 0
-87 88 0
87 -88 0
-88 89 0
88 -89 0
-89 90 0
89 -90 0
-90 91 0
90 -91 0
-91 92 0
91 -92 0
-92 93 0
92 -93 0
-10 94 0
10 -94 0
-94 95 0
94 -95 0
-95 96 0
95 -96 0
-96 97 0
96 -97 0
-97 98 0
97 -98 0
-98 99 0
98 -99 0
-99 100 0
99 -100 0
-100 101 0
100 -101 0
-11 102 0
-1 -180 12 0
-12 1 0
-12 180 0
-2 -188 13 0
-13 2 0
-13 188 0
-3 -196 14 0
-14 3 0
-14 196 0
-4 -204 15 0
-15 4 0
-15 204 0
-5 -212 16 0
-16 5 0
-16 212 0
-6 -220 17 0
-17 6 0
-17 220 0
-7 -228 18 0
-18 7 0
-18 228 0
-8 -236 19 0
-19 8 0
-19 236 0
-9 -244 20 0
-20 9 0
-20 244 0
-10 -252 21 0
-21 10 0
-21 252 0
12 13 14 15 16 17 18 19 20 21 11 -102 0
-102 113 0
-22 -181 103 0
-103 22 0
-103 181 0
-30 -189 104 0
-104 30 0
-104 189 0
-38 -197 105 0
-105 38 0
-105 197 0
-46 -205 106 0
-106 46 0
-106 205 0
-54 -213 107 0
-107 54 0
-107 213 0
-62 -221 108 0
-108 62 0
-108 221 0
-70 -229 109 0
-109 70 0
-109 229 0
-78 -237 110 0
-110 78 0
-110 237 0
-86 -245 111 0
-111 86 0
-111 245 0
-94 -253 112 0
-112 94 0
-112 253 0
103 104 105 106 107 108 109 110 111 112 102 -113 0
-113 124 0
-23 -182 114 0
-114 23 0
-114 182 0
-31 -190 115 0
-115 31 0
-115 190 0
-39 -198 116 0
-116 39 0
-116 198 0
-47 -206 117 0
-117 47 0
-117 206 0
-55 -214 118 0
-118 55 0
-118 214 0
-63 -222 119 0
-119 63 0
-119 222 0
-71 -230 120 0
-120 71 0
-120 230 0
-79 -238 121 0
-121 79 0
-121 238 0
-87 -246 122 0
-122 87 0
-122 246 0
-95 -254 123 0
-123 95 0
-123 254 0
114 115 116 117 118 119 120 121 122 123 113 -124 0
-124 135 0
-24 -183 125 0
-125 24 0
-125 183 0
-32 -191 126 0
-126 32 0
-126 191 0
-40 -199 127 0
-127 40 0
-127 199 0
-48 -207 128 0
-128 48 0
-128 207 0
-56 -215 129 0
-129 56 0
-129 215 0
-64 -223 130 0
-130 64 0
-130 223 0
-72 -231 131 0
-131 72 0
-131 231 0
-80 -239 132 0
-132 80 0
-132 239 0
-88 -247 133 0
-133 88 0
-133 247 0
-96 -255 134 0
-134 96 0
-134 255 0
125 126 127 128 129 130 131 132 133 134 124 -135 0
-135 146 0
-25 -184 136 0
-136 25 0
-136 184 0
-33 -192 137 0
-137 33 0
-137 192 0
-41 -200 138 0
-138 41 0
-138 200 0
-49 -208 139 0
-139 49 0
-139 208 0
-57 -216 140 0
-140 57 0
-140 216 0
-65 -224 141 0
-141 65 0
-141 224 0
-73 -232 142 0
-142 73 0
-142 232 0
-81 -240 143 0
-143 81 0
-143 240 0
-89 -248 144 0
-144 89 0
-144 248 0
-97 -256 145 0
-145 97 0
-145 256 0
136 137 138 139 140 141 142 143 144 145 135 -146 0
-146 157 0
-26 -185 147 0
-147 26 0
-147 185 0
-34 -193 148 0
-148 34 0
-148 193 0
-42 -201 149 0
-149 42 0
-149 201 0
-50 -209 150 0
-150 50 0
-150 209 0
-58 -217 151 0
-151 58 0
-151 217 0
-66 -225 152 0
-152 66 0
-152 225 0
-74 -233 153 0
-153 74 0
-153 233 0
-82 -241 154 0
-154 82 0
-154 241 0
-90 -249 155 0
-155 90 0
-155 249 0
-98 -257 156 0
-156 98 0
-156 257 0
147 148 149 150 151 152 153 154 155 156 146 -157 0
-157 168 0
-27 -186 158 0
-158 27 0
-158 186 0
-35 -194 159 0
-159 35 0
-159 194 0
-43 -202 160 0
-160 43 0
-160 202 0
-51 -210 161 0
-161 51 0
-161 210 0
-59 -218 162 0
-162 59 0
-162 218 0
-67 -226 163 0
-163 67 0
-163 226 0
-75 -234 164 0
-164 75 0
-164 234 0
-83 -242 165 0
-165 83 0
-165 242 0
-91 -250 166 0
-166 91 0
-166 250 0
-99 -258 167 0
-167 99 0
-167 258 0
158 159 160 161 162 163 164 165 166 167 157 -168 0
-168 179 0
-28 -187 169 0
-169 28 0
-169 187 0
-36 -195 170 0
-170 36 0
-170 195 0
-44 -203 171 0
-171 44 0
-171 203 0
-52 -211 172 0
-172 52 0
-172 211 0
-60 -219 173 0
-173 60 0
-173 219 0
-68 -227 174 0
-174 68 0
-174 227 0
-76 -235 175 0
-175 76 0
-175 235 0
-84 -243 176 0
-176 84 0
-176 243 0
-92 -251 177 0
-177 92 0
-177 251 0
-100 -259 178 0
-178 100 0
-178 259 0
169 170 171 172 173 174 175 176 177 178 168 -179 0
